10
1 0 9
2 0 4
2 1 3
3 0 2
3 1 3
3 2 9
4 0 10
4 1 8
4 2 6
4 3 8
5 0 8
5 1 10
5 2 8
5 3 2
5 4 4
6 0 10
6 1 1
6 2 4
6 3 1
6 4 5
6 5 7
7 0 2
7 1 2
7 2 10
7 3 4
7 4 7
7 5 2
7 6 10
8 0 7
8 1 8
8 2 2
8 3 10
8 4 9
8 5 10
8 6 10
8 7 1
9 0 8
9 1 2
9 2 2
9 3 6
9 4 1
9 5 2
9 6 10
9 7 3
9 8 8
